NAME /Users/henri/Research/solvers/instances/idol-instances/robust/collection/spp_dkp_Lefebvre_et_al_2026/shortest_path_5_3/uncertainty_sets/discrete_knapsack
ROWS
 N  OBJ
 L  primal_lower
COLUMNS
    MARKER    'MARKER'                 'INTORG'
    y[0,1]     OBJ        0
    y[0,1]     primal_lower -5.87
    y[0,2]     OBJ        0
    y[0,2]     primal_lower -3.26
    y[0,3]     OBJ        0
    y[0,3]     primal_lower -1.67
    y[0,4]     OBJ        0
    y[0,4]     primal_lower -0.46
    y[1,0]     OBJ        0
    y[1,0]     primal_lower -2.64
    y[1,2]     OBJ        0
    y[1,2]     primal_lower -2.81
    y[1,3]     OBJ        0
    y[1,3]     primal_lower -0.29
    y[2,0]     OBJ        0
    y[2,0]     primal_lower -0.97
    y[2,1]     OBJ        0
    y[2,1]     primal_lower -0.69
    y[2,3]     OBJ        0
    y[2,3]     primal_lower -3.73
    y[2,4]     OBJ        0
    y[2,4]     primal_lower -5.08
    y[3,0]     OBJ        0
    y[3,0]     primal_lower -3.86
    y[3,1]     OBJ        0
    y[3,1]     primal_lower -5.88
    y[3,2]     OBJ        0
    y[3,2]     primal_lower -2.79
    y[4,0]     OBJ        0
    y[4,0]     primal_lower -3.67
    y[4,2]     OBJ        0
    y[4,2]     primal_lower -1.68
    u[0,1]     OBJ        0
    u[0,1]     primal_lower 95
    u[0,2]     OBJ        0
    u[0,2]     primal_lower 88
    u[0,3]     OBJ        0
    u[0,3]     primal_lower 12
    u[0,4]     OBJ        0
    u[0,4]     primal_lower 76
    u[1,0]     OBJ        0
    u[1,0]     primal_lower 14
    u[1,2]     OBJ        0
    u[1,2]     primal_lower 58
    u[1,3]     OBJ        0
    u[1,3]     primal_lower 23
    u[2,0]     OBJ        0
    u[2,0]     primal_lower 38
    u[2,1]     OBJ        0
    u[2,1]     primal_lower 32
    u[2,3]     OBJ        0
    u[2,3]     primal_lower 19
    u[2,4]     OBJ        0
    u[2,4]     primal_lower 93
    u[3,0]     OBJ        0
    u[3,0]     primal_lower 67
    u[3,1]     OBJ        0
    u[3,1]     primal_lower 57
    u[3,2]     OBJ        0
    u[3,2]     primal_lower 55
    u[4,0]     OBJ        0
    u[4,0]     primal_lower 67
    u[4,2]     OBJ        0
    u[4,2]     primal_lower 49
    MARKER    'MARKER'                 'INTEND'
RHS
    RHS       primal_lower 95
BOUNDS
 LI BND       y[0,1]     0
 UI BND       y[0,1]     1
 LI BND       y[0,2]     0
 UI BND       y[0,2]     1
 LI BND       y[0,3]     0
 UI BND       y[0,3]     1
 LI BND       y[0,4]     0
 UI BND       y[0,4]     1
 LI BND       y[1,0]     0
 UI BND       y[1,0]     1
 LI BND       y[1,2]     0
 UI BND       y[1,2]     1
 LI BND       y[1,3]     0
 UI BND       y[1,3]     1
 LI BND       y[2,0]     0
 UI BND       y[2,0]     1
 LI BND       y[2,1]     0
 UI BND       y[2,1]     1
 LI BND       y[2,3]     0
 UI BND       y[2,3]     1
 LI BND       y[2,4]     0
 UI BND       y[2,4]     1
 LI BND       y[3,0]     0
 UI BND       y[3,0]     1
 LI BND       y[3,1]     0
 UI BND       y[3,1]     1
 LI BND       y[3,2]     0
 UI BND       y[3,2]     1
 LI BND       y[4,0]     0
 UI BND       y[4,0]     1
 LI BND       y[4,2]     0
 UI BND       y[4,2]     1
 LI BND       u[0,1]     0
 UI BND       u[0,1]     1
 LI BND       u[0,2]     0
 UI BND       u[0,2]     1
 LI BND       u[0,3]     0
 UI BND       u[0,3]     1
 LI BND       u[0,4]     0
 UI BND       u[0,4]     1
 LI BND       u[1,0]     0
 UI BND       u[1,0]     1
 LI BND       u[1,2]     0
 UI BND       u[1,2]     1
 LI BND       u[1,3]     0
 UI BND       u[1,3]     1
 LI BND       u[2,0]     0
 UI BND       u[2,0]     1
 LI BND       u[2,1]     0
 UI BND       u[2,1]     1
 LI BND       u[2,3]     0
 UI BND       u[2,3]     1
 LI BND       u[2,4]     0
 UI BND       u[2,4]     1
 LI BND       u[3,0]     0
 UI BND       u[3,0]     1
 LI BND       u[3,1]     0
 UI BND       u[3,1]     1
 LI BND       u[3,2]     0
 UI BND       u[3,2]     1
 LI BND       u[4,0]     0
 UI BND       u[4,0]     1
 LI BND       u[4,2]     0
 UI BND       u[4,2]     1
ENDATA
